Minimize
 obj:  + 1 x001002 + 99 x001003 + 99 x001004 + 1 x001005 + 99 x001006 + 99 x001007 + 99 x001008 + 99 x001009 + 99 x001010 + 99 x001011 + 99 x001012 + 99 x001013 + 99 x001014 + 99 x001015 + 1 x002001 + 2 x002003 + 99 x002004 + 99 x002005 + 2 x002006 + 99 x002007 + 99 x002008 + 99 x002009 + 99 x002010 + 99 x002011 + 99 x002012 + 99 x002013 + 99 x002014 + 99 x002015 + 99 x003001 + 2 x003002 + 1 x003004 + 99 x003005 + 99 x003006 + 99 x003007 + 2 x003008 + 99 x003009 + 99 x003010 + 99 x003011 + 99 x003012 + 99 x003013 + 99 x003014 + 99 x003015 + 99 x004001 + 99 x004002 + 1 x004003 + 99 x004005 + 99 x004006 + 99 x004007 + 99 x004008 + 99 x004009 + 99 x004010 + 99 x004011 + 99 x004012 + 99 x004013 + 99 x004014 + 3 x004015 + 1 x005001 + 99 x005002 + 99 x005003 + 99 x005004 + 1 x005006 + 99 x005007 + 99 x005008 + 1 x005009 + 99 x005010 + 99 x005011 + 99 x005012 + 99 x005013 + 99 x005014 + 99 x005015 + 99 x006001 + 2 x006002 + 99 x006003 + 99 x006004 + 1 x006005 + 1 x006007 + 99 x006008 + 99 x006009 + 99 x006010 + 99 x006011 + 99 x006012 + 99 x006013 + 99 x006014 + 99 x006015 + 99 x007001 + 99 x007002 + 99 x007003 + 99 x007004 + 99 x007005 + 1 x007006 + 1 x007008 + 99 x007009 + 1 x007010 + 99 x007011 + 99 x007012 + 99 x007013 + 99 x007014 + 99 x007015 + 99 x008001 + 99 x008002 + 2 x008003 + 99 x008004 + 99 x008005 + 99 x008006 + 1 x008007 + 99 x008009 + 99 x008010 + 1 x008011 + 99 x008012 + 99 x008013 + 99 x008014 + 99 x008015 + 99 x009001 + 99 x009002 + 99 x009003 + 99 x009004 + 1 x009005 + 99 x009006 + 99 x009007 + 99 x009008 + 3 x009010 + 99 x009011 + 2 x009012 + 99 x009013 + 99 x009014 + 99 x009015 + 99 x010001 + 99 x010002 + 99 x010003 + 99 x010004 + 99 x010005 + 99 x010006 + 1 x010007 + 99 x010008 + 3 x010009 + 1 x010011 + 99 x010012 + 2 x010013 + 99 x010014 + 99 x010015 + 99 x011001 + 99 x011002 + 99 x011003 + 99 x011004 + 99 x011005 + 99 x011006 + 99 x011007 + 1 x011008 + 99 x011009 + 1 x011010 + 99 x011012 + 99 x011013 + 1 x011014 + 99 x011015 + 99 x012001 + 99 x012002 + 99 x012003 + 99 x012004 + 99 x012005 + 99 x012006 + 99 x012007 + 99 x012008 + 2 x012009 + 99 x012010 + 99 x012011 + 2 x012013 + 99 x012014 + 99 x012015 + 99 x013001 + 99 x013002 + 99 x013003 + 99 x013004 + 99 x013005 + 99 x013006 + 99 x013007 + 99 x013008 + 99 x013009 + 2 x013010 + 99 x013011 + 2 x013012 + 1 x013014 + 99 x013015 + 99 x014001 + 99 x014002 + 99 x014003 + 99 x014004 + 99 x014005 + 99 x014006 + 99 x014007 + 99 x014008 + 99 x014009 + 99 x014010 + 1 x014011 + 99 x014012 + 1 x014013 + 1 x014015 + 99 x015001 + 99 x015002 + 99 x015003 + 3 x015004 + 99 x015005 + 99 x015006 + 99 x015007 + 99 x015008 + 99 x015009 + 99 x015010 + 99 x015011 + 99 x015012 + 99 x015013 + 1 x015014

Subject To
c1: x000002 = 1
c2: x011016 + x012016 + x013016 = 1
c3: x002003 + x004003 + x008003 = 1
c4: x003004 + x015004 = 1
c5: x006007 + x008007 + x010007 = 1
c6: x008011 + x010011 + x014011 = 1
c7: x009012 + x013012 = 1
c8: x010013 + x012013 + x014013 = 1
c9:  x001002 +  x001003 +  x001004 +  x001005 +  x001006 +  x001007 +  x001008 +  x001009 +  x001010 +  x001011 +  x001012 +  x001013 +  x001014 +  x001015 - x002001 - x003001 - x004001 - x005001 - x006001 - x007001 - x008001 - x009001 - x010001 - x011001 - x012001 - x013001 - x014001 - x015001 = 0
c10:  x002001 +  x002003 +  x002004 +  x002005 +  x002006 +  x002007 +  x002008 +  x002009 +  x002010 +  x002011 +  x002012 +  x002013 +  x002014 +  x002015 - x001002 - x003002 - x004002 - x005002 - x006002 - x007002 - x008002 - x009002 - x010002 - x011002 - x012002 - x013002 - x014002 - x015002 - x000002 = 0
c11:  x003001 +  x003002 +  x003004 +  x003005 +  x003006 +  x003007 +  x003008 +  x003009 +  x003010 +  x003011 +  x003012 +  x003013 +  x003014 +  x003015 - x001003 - x002003 - x004003 - x005003 - x006003 - x007003 - x008003 - x009003 - x010003 - x011003 - x012003 - x013003 - x014003 - x015003 = 0
c12:  x004001 +  x004002 +  x004003 +  x004005 +  x004006 +  x004007 +  x004008 +  x004009 +  x004010 +  x004011 +  x004012 +  x004013 +  x004014 +  x004015 - x001004 - x002004 - x003004 - x005004 - x006004 - x007004 - x008004 - x009004 - x010004 - x011004 - x012004 - x013004 - x014004 - x015004 = 0
c13:  x005001 +  x005002 +  x005003 +  x005004 +  x005006 +  x005007 +  x005008 +  x005009 +  x005010 +  x005011 +  x005012 +  x005013 +  x005014 +  x005015 - x001005 - x002005 - x003005 - x004005 - x006005 - x007005 - x008005 - x009005 - x010005 - x011005 - x012005 - x013005 - x014005 - x015005 = 0
c14:  x006001 +  x006002 +  x006003 +  x006004 +  x006005 +  x006007 +  x006008 +  x006009 +  x006010 +  x006011 +  x006012 +  x006013 +  x006014 +  x006015 - x001006 - x002006 - x003006 - x004006 - x005006 - x007006 - x008006 - x009006 - x010006 - x011006 - x012006 - x013006 - x014006 - x015006 = 0
c15:  x007001 +  x007002 +  x007003 +  x007004 +  x007005 +  x007006 +  x007008 +  x007009 +  x007010 +  x007011 +  x007012 +  x007013 +  x007014 +  x007015 - x001007 - x002007 - x003007 - x004007 - x005007 - x006007 - x008007 - x009007 - x010007 - x011007 - x012007 - x013007 - x014007 - x015007 = 0
c16:  x008001 +  x008002 +  x008003 +  x008004 +  x008005 +  x008006 +  x008007 +  x008009 +  x008010 +  x008011 +  x008012 +  x008013 +  x008014 +  x008015 - x001008 - x002008 - x003008 - x004008 - x005008 - x006008 - x007008 - x009008 - x010008 - x011008 - x012008 - x013008 - x014008 - x015008 = 0
c17:  x009001 +  x009002 +  x009003 +  x009004 +  x009005 +  x009006 +  x009007 +  x009008 +  x009010 +  x009011 +  x009012 +  x009013 +  x009014 +  x009015 - x001009 - x002009 - x003009 - x004009 - x005009 - x006009 - x007009 - x008009 - x010009 - x011009 - x012009 - x013009 - x014009 - x015009 = 0
c18:  x010001 +  x010002 +  x010003 +  x010004 +  x010005 +  x010006 +  x010007 +  x010008 +  x010009 +  x010011 +  x010012 +  x010013 +  x010014 +  x010015 - x001010 - x002010 - x003010 - x004010 - x005010 - x006010 - x007010 - x008010 - x009010 - x011010 - x012010 - x013010 - x014010 - x015010 = 0
c19:  x011001 +  x011002 +  x011003 +  x011004 +  x011005 +  x011006 +  x011007 +  x011008 +  x011009 +  x011010 +  x011012 +  x011013 +  x011014 +  x011015 - x001011 - x002011 - x003011 - x004011 - x005011 - x006011 - x007011 - x008011 - x009011 - x010011 - x012011 - x013011 - x014011 - x015011 + x011016 = 0
c20:  x012001 +  x012002 +  x012003 +  x012004 +  x012005 +  x012006 +  x012007 +  x012008 +  x012009 +  x012010 +  x012011 +  x012013 +  x012014 +  x012015 - x001012 - x002012 - x003012 - x004012 - x005012 - x006012 - x007012 - x008012 - x009012 - x010012 - x011012 - x013012 - x014012 - x015012 + x012016 = 0
c21:  x013001 +  x013002 +  x013003 +  x013004 +  x013005 +  x013006 +  x013007 +  x013008 +  x013009 +  x013010 +  x013011 +  x013012 +  x013014 +  x013015 - x001013 - x002013 - x003013 - x004013 - x005013 - x006013 - x007013 - x008013 - x009013 - x010013 - x011013 - x012013 - x014013 - x015013 + x013016 = 0
c22:  x014001 +  x014002 +  x014003 +  x014004 +  x014005 +  x014006 +  x014007 +  x014008 +  x014009 +  x014010 +  x014011 +  x014012 +  x014013 +  x014015 - x001014 - x002014 - x003014 - x004014 - x005014 - x006014 - x007014 - x008014 - x009014 - x010014 - x011014 - x012014 - x013014 - x015014 = 0
c23:  x015001 +  x015002 +  x015003 +  x015004 +  x015005 +  x015006 +  x015007 +  x015008 +  x015009 +  x015010 +  x015011 +  x015012 +  x015013 +  x015014 - x001015 - x002015 - x003015 - x004015 - x005015 - x006015 - x007015 - x008015 - x009015 - x010015 - x011015 - x012015 - x013015 - x014015 = 0
c24: t001 - t002 + 1000 x001002 <= 999
c25: t001 - t003 + 1000 x001003 <= 901
c26: t001 - t004 + 1000 x001004 <= 901
c27: t001 - t005 + 1000 x001005 <= 999
c28: t001 - t006 + 1000 x001006 <= 901
c29: t001 - t007 + 1000 x001007 <= 901
c30: t001 - t008 + 1000 x001008 <= 901
c31: t001 - t009 + 1000 x001009 <= 901
c32: t001 - t010 + 1000 x001010 <= 901
c33: t001 - t011 + 1000 x001011 <= 901
c34: t001 - t012 + 1000 x001012 <= 901
c35: t001 - t013 + 1000 x001013 <= 901
c36: t001 - t014 + 1000 x001014 <= 901
c37: t001 - t015 + 1000 x001015 <= 1000
c38: t002 - t001 + 1000 x002001 <= 999
c39: t002 - t003 + 1000 x002003 <= 998
c40: t002 - t004 + 1000 x002004 <= 901
c41: t002 - t005 + 1000 x002005 <= 901
c42: t002 - t006 + 1000 x002006 <= 998
c43: t002 - t007 + 1000 x002007 <= 901
c44: t002 - t008 + 1000 x002008 <= 901
c45: t002 - t009 + 1000 x002009 <= 901
c46: t002 - t010 + 1000 x002010 <= 901
c47: t002 - t011 + 1000 x002011 <= 901
c48: t002 - t012 + 1000 x002012 <= 901
c49: t002 - t013 + 1000 x002013 <= 901
c50: t002 - t014 + 1000 x002014 <= 901
c51: t002 - t015 + 1000 x002015 <= 1000
c52: t003 - t001 + 1000 x003001 <= 901
c53: t003 - t002 + 1000 x003002 <= 998
c54: t003 - t004 + 1000 x003004 <= 999
c55: t003 - t005 + 1000 x003005 <= 901
c56: t003 - t006 + 1000 x003006 <= 901
c57: t003 - t007 + 1000 x003007 <= 901
c58: t003 - t008 + 1000 x003008 <= 998
c59: t003 - t009 + 1000 x003009 <= 901
c60: t003 - t010 + 1000 x003010 <= 901
c61: t003 - t011 + 1000 x003011 <= 901
c62: t003 - t012 + 1000 x003012 <= 901
c63: t003 - t013 + 1000 x003013 <= 901
c64: t003 - t014 + 1000 x003014 <= 901
c65: t003 - t015 + 1000 x003015 <= 1000
c66: t004 - t001 + 1000 x004001 <= 901
c67: t004 - t002 + 1000 x004002 <= 901
c68: t004 - t003 + 1000 x004003 <= 999
c69: t004 - t005 + 1000 x004005 <= 901
c70: t004 - t006 + 1000 x004006 <= 901
c71: t004 - t007 + 1000 x004007 <= 901
c72: t004 - t008 + 1000 x004008 <= 901
c73: t004 - t009 + 1000 x004009 <= 901
c74: t004 - t010 + 1000 x004010 <= 901
c75: t004 - t011 + 1000 x004011 <= 901
c76: t004 - t012 + 1000 x004012 <= 901
c77: t004 - t013 + 1000 x004013 <= 901
c78: t004 - t014 + 1000 x004014 <= 901
c79: t004 - t015 + 1000 x004015 <= 1000
c80: t005 - t001 + 1000 x005001 <= 999
c81: t005 - t002 + 1000 x005002 <= 901
c82: t005 - t003 + 1000 x005003 <= 901
c83: t005 - t004 + 1000 x005004 <= 901
c84: t005 - t006 + 1000 x005006 <= 999
c85: t005 - t007 + 1000 x005007 <= 901
c86: t005 - t008 + 1000 x005008 <= 901
c87: t005 - t009 + 1000 x005009 <= 999
c88: t005 - t010 + 1000 x005010 <= 901
c89: t005 - t011 + 1000 x005011 <= 901
c90: t005 - t012 + 1000 x005012 <= 901
c91: t005 - t013 + 1000 x005013 <= 901
c92: t005 - t014 + 1000 x005014 <= 901
c93: t005 - t015 + 1000 x005015 <= 1000
c94: t006 - t001 + 1000 x006001 <= 901
c95: t006 - t002 + 1000 x006002 <= 998
c96: t006 - t003 + 1000 x006003 <= 901
c97: t006 - t004 + 1000 x006004 <= 901
c98: t006 - t005 + 1000 x006005 <= 999
c99: t006 - t007 + 1000 x006007 <= 999
c100: t006 - t008 + 1000 x006008 <= 901
c101: t006 - t009 + 1000 x006009 <= 901
c102: t006 - t010 + 1000 x006010 <= 901
c103: t006 - t011 + 1000 x006011 <= 901
c104: t006 - t012 + 1000 x006012 <= 901
c105: t006 - t013 + 1000 x006013 <= 901
c106: t006 - t014 + 1000 x006014 <= 901
c107: t006 - t015 + 1000 x006015 <= 1000
c108: t007 - t001 + 1000 x007001 <= 901
c109: t007 - t002 + 1000 x007002 <= 901
c110: t007 - t003 + 1000 x007003 <= 901
c111: t007 - t004 + 1000 x007004 <= 901
c112: t007 - t005 + 1000 x007005 <= 901
c113: t007 - t006 + 1000 x007006 <= 999
c114: t007 - t008 + 1000 x007008 <= 999
c115: t007 - t009 + 1000 x007009 <= 901
c116: t007 - t010 + 1000 x007010 <= 999
c117: t007 - t011 + 1000 x007011 <= 901
c118: t007 - t012 + 1000 x007012 <= 901
c119: t007 - t013 + 1000 x007013 <= 901
c120: t007 - t014 + 1000 x007014 <= 901
c121: t007 - t015 + 1000 x007015 <= 1000
c122: t008 - t001 + 1000 x008001 <= 901
c123: t008 - t002 + 1000 x008002 <= 901
c124: t008 - t003 + 1000 x008003 <= 998
c125: t008 - t004 + 1000 x008004 <= 901
c126: t008 - t005 + 1000 x008005 <= 901
c127: t008 - t006 + 1000 x008006 <= 901
c128: t008 - t007 + 1000 x008007 <= 999
c129: t008 - t009 + 1000 x008009 <= 901
c130: t008 - t010 + 1000 x008010 <= 901
c131: t008 - t011 + 1000 x008011 <= 999
c132: t008 - t012 + 1000 x008012 <= 901
c133: t008 - t013 + 1000 x008013 <= 901
c134: t008 - t014 + 1000 x008014 <= 901
c135: t008 - t015 + 1000 x008015 <= 1000
c136: t009 - t001 + 1000 x009001 <= 901
c137: t009 - t002 + 1000 x009002 <= 901
c138: t009 - t003 + 1000 x009003 <= 901
c139: t009 - t004 + 1000 x009004 <= 901
c140: t009 - t005 + 1000 x009005 <= 999
c141: t009 - t006 + 1000 x009006 <= 901
c142: t009 - t007 + 1000 x009007 <= 901
c143: t009 - t008 + 1000 x009008 <= 901
c144: t009 - t010 + 1000 x009010 <= 997
c145: t009 - t011 + 1000 x009011 <= 901
c146: t009 - t012 + 1000 x009012 <= 998
c147: t009 - t013 + 1000 x009013 <= 901
c148: t009 - t014 + 1000 x009014 <= 901
c149: t009 - t015 + 1000 x009015 <= 1000
c150: t010 - t001 + 1000 x010001 <= 901
c151: t010 - t002 + 1000 x010002 <= 901
c152: t010 - t003 + 1000 x010003 <= 901
c153: t010 - t004 + 1000 x010004 <= 901
c154: t010 - t005 + 1000 x010005 <= 901
c155: t010 - t006 + 1000 x010006 <= 901
c156: t010 - t007 + 1000 x010007 <= 999
c157: t010 - t008 + 1000 x010008 <= 901
c158: t010 - t009 + 1000 x010009 <= 997
c159: t010 - t011 + 1000 x010011 <= 999
c160: t010 - t012 + 1000 x010012 <= 901
c161: t010 - t013 + 1000 x010013 <= 998
c162: t010 - t014 + 1000 x010014 <= 901
c163: t010 - t015 + 1000 x010015 <= 1000
c164: t011 - t001 + 1000 x011001 <= 901
c165: t011 - t002 + 1000 x011002 <= 901
c166: t011 - t003 + 1000 x011003 <= 901
c167: t011 - t004 + 1000 x011004 <= 901
c168: t011 - t005 + 1000 x011005 <= 901
c169: t011 - t006 + 1000 x011006 <= 901
c170: t011 - t007 + 1000 x011007 <= 901
c171: t011 - t008 + 1000 x011008 <= 999
c172: t011 - t009 + 1000 x011009 <= 901
c173: t011 - t010 + 1000 x011010 <= 999
c174: t011 - t012 + 1000 x011012 <= 901
c175: t011 - t013 + 1000 x011013 <= 901
c176: t011 - t014 + 1000 x011014 <= 999
c177: t011 - t015 + 1000 x011015 <= 1000
c178: t012 - t001 + 1000 x012001 <= 901
c179: t012 - t002 + 1000 x012002 <= 901
c180: t012 - t003 + 1000 x012003 <= 901
c181: t012 - t004 + 1000 x012004 <= 901
c182: t012 - t005 + 1000 x012005 <= 901
c183: t012 - t006 + 1000 x012006 <= 901
c184: t012 - t007 + 1000 x012007 <= 901
c185: t012 - t008 + 1000 x012008 <= 901
c186: t012 - t009 + 1000 x012009 <= 998
c187: t012 - t010 + 1000 x012010 <= 901
c188: t012 - t011 + 1000 x012011 <= 901
c189: t012 - t013 + 1000 x012013 <= 998
c190: t012 - t014 + 1000 x012014 <= 901
c191: t012 - t015 + 1000 x012015 <= 1000
c192: t013 - t001 + 1000 x013001 <= 901
c193: t013 - t002 + 1000 x013002 <= 901
c194: t013 - t003 + 1000 x013003 <= 901
c195: t013 - t004 + 1000 x013004 <= 901
c196: t013 - t005 + 1000 x013005 <= 901
c197: t013 - t006 + 1000 x013006 <= 901
c198: t013 - t007 + 1000 x013007 <= 901
c199: t013 - t008 + 1000 x013008 <= 901
c200: t013 - t009 + 1000 x013009 <= 901
c201: t013 - t010 + 1000 x013010 <= 998
c202: t013 - t011 + 1000 x013011 <= 901
c203: t013 - t012 + 1000 x013012 <= 998
c204: t013 - t014 + 1000 x013014 <= 999
c205: t013 - t015 + 1000 x013015 <= 1000
c206: t014 - t001 + 1000 x014001 <= 901
c207: t014 - t002 + 1000 x014002 <= 901
c208: t014 - t003 + 1000 x014003 <= 901
c209: t014 - t004 + 1000 x014004 <= 901
c210: t014 - t005 + 1000 x014005 <= 901
c211: t014 - t006 + 1000 x014006 <= 901
c212: t014 - t007 + 1000 x014007 <= 901
c213: t014 - t008 + 1000 x014008 <= 901
c214: t014 - t009 + 1000 x014009 <= 901
c215: t014 - t010 + 1000 x014010 <= 901
c216: t014 - t011 + 1000 x014011 <= 999
c217: t014 - t012 + 1000 x014012 <= 901
c218: t014 - t013 + 1000 x014013 <= 999
c219: t014 - t015 + 1000 x014015 <= 1000
c220: t015 - t001 + 1000 x015001 <= 901
c221: t015 - t002 + 1000 x015002 <= 901
c222: t015 - t003 + 1000 x015003 <= 901
c223: t015 - t004 + 1000 x015004 <= 997
c224: t015 - t005 + 1000 x015005 <= 901
c225: t015 - t006 + 1000 x015006 <= 901
c226: t015 - t007 + 1000 x015007 <= 901
c227: t015 - t008 + 1000 x015008 <= 901
c228: t015 - t009 + 1000 x015009 <= 901
c229: t015 - t010 + 1000 x015010 <= 901
c230: t015 - t011 + 1000 x015011 <= 901
c231: t015 - t012 + 1000 x015012 <= 901
c232: t015 - t013 + 1000 x015013 <= 901
c233: t015 - t014 + 1000 x015014 <= 999
c234: d001 - d002 + 2 x001002 <= 2
c235: d001 - d003 + 2 x001003 <= 2
c236: d001 - d004 + 2 x001004 <= 2
c237: d001 - d005 + 2 x001005 <= 2
c238: d001 - d006 + 2 x001006 <= 2
c239: d001 - d007 + 2 x001007 <= 2
c240: d001 - d008 + 2 x001008 <= 2
c241: d001 - d009 + 2 x001009 <= 2
c242: d001 - d010 + 2 x001010 <= 2
c243: d001 - d011 - 2 x001011 => -1
c244: d001 - d012 - 2 x001012 => -1
c245: d001 - d013 - 2 x001013 => -1
c246: d001 - d014 + 2 x001014 <= 2
c247: d001 - d015 + 2 x001015 <= 2
c248: d001 - d016 + 2 x001016 <= 2
c249: d002 - d001 + 2 x002001 <= 2
c250: d002 - d003 + 2 x002003 <= 2
c251: d002 - d004 + 2 x002004 <= 2
c252: d002 - d005 + 2 x002005 <= 2
c253: d002 - d006 + 2 x002006 <= 2
c254: d002 - d007 + 2 x002007 <= 2
c255: d002 - d008 + 2 x002008 <= 2
c256: d002 - d009 + 2 x002009 <= 2
c257: d002 - d010 + 2 x002010 <= 2
c258: d002 - d011 - 2 x002011 => -1
c259: d002 - d012 - 2 x002012 => -1
c260: d002 - d013 - 2 x002013 => -1
c261: d002 - d014 + 2 x002014 <= 2
c262: d002 - d015 + 2 x002015 <= 2
c263: d002 - d016 + 2 x002016 <= 2
c264: d003 - d001 + 2 x003001 <= 1
c265: d003 - d002 + 2 x003002 <= 1
c266: d003 - d004 + 2 x003004 <= 1
c267: d003 - d005 + 2 x003005 <= 1
c268: d003 - d006 + 2 x003006 <= 1
c269: d003 - d007 + 2 x003007 <= 1
c270: d003 - d008 + 2 x003008 <= 1
c271: d003 - d009 + 2 x003009 <= 1
c272: d003 - d010 + 2 x003010 <= 1
c273: d003 - d011 - 2 x003011 => -1
c274: d003 - d012 - 2 x003012 => -1
c275: d003 - d013 - 2 x003013 => -1
c276: d003 - d014 + 2 x003014 <= 1
c277: d003 - d015 + 2 x003015 <= 1
c278: d003 - d016 + 2 x003016 <= 1
c279: d004 - d001 + 2 x004001 <= 1
c280: d004 - d002 + 2 x004002 <= 1
c281: d004 - d003 + 2 x004003 <= 1
c282: d004 - d005 + 2 x004005 <= 1
c283: d004 - d006 + 2 x004006 <= 1
c284: d004 - d007 + 2 x004007 <= 1
c285: d004 - d008 + 2 x004008 <= 1
c286: d004 - d009 + 2 x004009 <= 1
c287: d004 - d010 + 2 x004010 <= 1
c288: d004 - d011 - 2 x004011 => -1
c289: d004 - d012 - 2 x004012 => -1
c290: d004 - d013 - 2 x004013 => -1
c291: d004 - d014 + 2 x004014 <= 1
c292: d004 - d015 + 2 x004015 <= 1
c293: d004 - d016 + 2 x004016 <= 1
c294: d005 - d001 + 2 x005001 <= 2
c295: d005 - d002 + 2 x005002 <= 2
c296: d005 - d003 + 2 x005003 <= 2
c297: d005 - d004 + 2 x005004 <= 2
c298: d005 - d006 + 2 x005006 <= 2
c299: d005 - d007 + 2 x005007 <= 2
c300: d005 - d008 + 2 x005008 <= 2
c301: d005 - d009 + 2 x005009 <= 2
c302: d005 - d010 + 2 x005010 <= 2
c303: d005 - d011 - 2 x005011 => -1
c304: d005 - d012 - 2 x005012 => -1
c305: d005 - d013 - 2 x005013 => -1
c306: d005 - d014 + 2 x005014 <= 2
c307: d005 - d015 + 2 x005015 <= 2
c308: d005 - d016 + 2 x005016 <= 2
c309: d006 - d001 + 2 x006001 <= 2
c310: d006 - d002 + 2 x006002 <= 2
c311: d006 - d003 + 2 x006003 <= 2
c312: d006 - d004 + 2 x006004 <= 2
c313: d006 - d005 + 2 x006005 <= 2
c314: d006 - d007 + 2 x006007 <= 2
c315: d006 - d008 + 2 x006008 <= 2
c316: d006 - d009 + 2 x006009 <= 2
c317: d006 - d010 + 2 x006010 <= 2
c318: d006 - d011 - 2 x006011 => -1
c319: d006 - d012 - 2 x006012 => -1
c320: d006 - d013 - 2 x006013 => -1
c321: d006 - d014 + 2 x006014 <= 2
c322: d006 - d015 + 2 x006015 <= 2
c323: d006 - d016 + 2 x006016 <= 2
c324: d007 - d001 + 2 x007001 <= 1
c325: d007 - d002 + 2 x007002 <= 1
c326: d007 - d003 + 2 x007003 <= 1
c327: d007 - d004 + 2 x007004 <= 1
c328: d007 - d005 + 2 x007005 <= 1
c329: d007 - d006 + 2 x007006 <= 1
c330: d007 - d008 + 2 x007008 <= 1
c331: d007 - d009 + 2 x007009 <= 1
c332: d007 - d010 + 2 x007010 <= 1
c333: d007 - d011 - 2 x007011 => -1
c334: d007 - d012 - 2 x007012 => -1
c335: d007 - d013 - 2 x007013 => -1
c336: d007 - d014 + 2 x007014 <= 1
c337: d007 - d015 + 2 x007015 <= 1
c338: d007 - d016 + 2 x007016 <= 1
c339: d008 - d001 + 2 x008001 <= 2
c340: d008 - d002 + 2 x008002 <= 2
c341: d008 - d003 + 2 x008003 <= 2
c342: d008 - d004 + 2 x008004 <= 2
c343: d008 - d005 + 2 x008005 <= 2
c344: d008 - d006 + 2 x008006 <= 2
c345: d008 - d007 + 2 x008007 <= 2
c346: d008 - d009 + 2 x008009 <= 2
c347: d008 - d010 + 2 x008010 <= 2
c348: d008 - d011 - 2 x008011 => -1
c349: d008 - d012 - 2 x008012 => -1
c350: d008 - d013 - 2 x008013 => -1
c351: d008 - d014 + 2 x008014 <= 2
c352: d008 - d015 + 2 x008015 <= 2
c353: d008 - d016 + 2 x008016 <= 2
c354: d009 - d001 + 2 x009001 <= 2
c355: d009 - d002 + 2 x009002 <= 2
c356: d009 - d003 + 2 x009003 <= 2
c357: d009 - d004 + 2 x009004 <= 2
c358: d009 - d005 + 2 x009005 <= 2
c359: d009 - d006 + 2 x009006 <= 2
c360: d009 - d007 + 2 x009007 <= 2
c361: d009 - d008 + 2 x009008 <= 2
c362: d009 - d010 + 2 x009010 <= 2
c363: d009 - d011 - 2 x009011 => -1
c364: d009 - d012 - 2 x009012 => -1
c365: d009 - d013 - 2 x009013 => -1
c366: d009 - d014 + 2 x009014 <= 2
c367: d009 - d015 + 2 x009015 <= 2
c368: d009 - d016 + 2 x009016 <= 2
c369: d010 - d001 + 2 x010001 <= 2
c370: d010 - d002 + 2 x010002 <= 2
c371: d010 - d003 + 2 x010003 <= 2
c372: d010 - d004 + 2 x010004 <= 2
c373: d010 - d005 + 2 x010005 <= 2
c374: d010 - d006 + 2 x010006 <= 2
c375: d010 - d007 + 2 x010007 <= 2
c376: d010 - d008 + 2 x010008 <= 2
c377: d010 - d009 + 2 x010009 <= 2
c378: d010 - d011 - 2 x010011 => -1
c379: d010 - d012 - 2 x010012 => -1
c380: d010 - d013 - 2 x010013 => -1
c381: d010 - d014 + 2 x010014 <= 2
c382: d010 - d015 + 2 x010015 <= 2
c383: d010 - d016 + 2 x010016 <= 2
c384: d011 - d001 + 2 x011001 <= 3
c385: d011 - d002 + 2 x011002 <= 3
c386: d011 - d003 + 2 x011003 <= 3
c387: d011 - d004 + 2 x011004 <= 3
c388: d011 - d005 + 2 x011005 <= 3
c389: d011 - d006 + 2 x011006 <= 3
c390: d011 - d007 + 2 x011007 <= 3
c391: d011 - d008 + 2 x011008 <= 3
c392: d011 - d009 + 2 x011009 <= 3
c393: d011 - d010 + 2 x011010 <= 3
c394: d011 - d012 - 2 x011012 => -1
c395: d011 - d013 - 2 x011013 => -1
c396: d011 - d014 + 2 x011014 <= 3
c397: d011 - d015 + 2 x011015 <= 3
c398: d011 - d016 + 2 x011016 <= 3
c399: d012 - d001 + 2 x012001 <= 3
c400: d012 - d002 + 2 x012002 <= 3
c401: d012 - d003 + 2 x012003 <= 3
c402: d012 - d004 + 2 x012004 <= 3
c403: d012 - d005 + 2 x012005 <= 3
c404: d012 - d006 + 2 x012006 <= 3
c405: d012 - d007 + 2 x012007 <= 3
c406: d012 - d008 + 2 x012008 <= 3
c407: d012 - d009 + 2 x012009 <= 3
c408: d012 - d010 + 2 x012010 <= 3
c409: d012 - d011 - 2 x012011 => -1
c410: d012 - d013 - 2 x012013 => -1
c411: d012 - d014 + 2 x012014 <= 3
c412: d012 - d015 + 2 x012015 <= 3
c413: d012 - d016 + 2 x012016 <= 3
c414: d013 - d001 + 2 x013001 <= 3
c415: d013 - d002 + 2 x013002 <= 3
c416: d013 - d003 + 2 x013003 <= 3
c417: d013 - d004 + 2 x013004 <= 3
c418: d013 - d005 + 2 x013005 <= 3
c419: d013 - d006 + 2 x013006 <= 3
c420: d013 - d007 + 2 x013007 <= 3
c421: d013 - d008 + 2 x013008 <= 3
c422: d013 - d009 + 2 x013009 <= 3
c423: d013 - d010 + 2 x013010 <= 3
c424: d013 - d011 - 2 x013011 => -1
c425: d013 - d012 - 2 x013012 => -1
c426: d013 - d014 + 2 x013014 <= 3
c427: d013 - d015 + 2 x013015 <= 3
c428: d013 - d016 + 2 x013016 <= 3
c429: d014 - d001 + 2 x014001 <= 2
c430: d014 - d002 + 2 x014002 <= 2
c431: d014 - d003 + 2 x014003 <= 2
c432: d014 - d004 + 2 x014004 <= 2
c433: d014 - d005 + 2 x014005 <= 2
c434: d014 - d006 + 2 x014006 <= 2
c435: d014 - d007 + 2 x014007 <= 2
c436: d014 - d008 + 2 x014008 <= 2
c437: d014 - d009 + 2 x014009 <= 2
c438: d014 - d010 + 2 x014010 <= 2
c439: d014 - d011 - 2 x014011 => -1
c440: d014 - d012 - 2 x014012 => -1
c441: d014 - d013 - 2 x014013 => -1
c442: d014 - d015 + 2 x014015 <= 2
c443: d014 - d016 + 2 x014016 <= 2
c444: d015 - d001 + 2 x015001 <= 2
c445: d015 - d002 + 2 x015002 <= 2
c446: d015 - d003 + 2 x015003 <= 2
c447: d015 - d004 + 2 x015004 <= 2
c448: d015 - d005 + 2 x015005 <= 2
c449: d015 - d006 + 2 x015006 <= 2
c450: d015 - d007 + 2 x015007 <= 2
c451: d015 - d008 + 2 x015008 <= 2
c452: d015 - d009 + 2 x015009 <= 2
c453: d015 - d010 + 2 x015010 <= 2
c454: d015 - d011 - 2 x015011 => -1
c455: d015 - d012 - 2 x015012 => -1
c456: d015 - d013 - 2 x015013 => -1
c457: d015 - d014 + 2 x015014 <= 2
c458: d015 - d016 + 2 x015016 <= 2
c459: t003 - t012 <= 0
c460: t004 - t013 <= 0
c461: t007 - t011 <= 0
Bounds
0 <= t001 <= 1000000
0 <= t002 <= 1000000
0 <= t003 <= 1000000
0 <= t004 <= 1000000
0 <= t005 <= 1000000
0 <= t006 <= 1000000
0 <= t007 <= 1000000
0 <= t008 <= 1000000
0 <= t009 <= 1000000
0 <= t010 <= 1000000
0 <= t011 <= 1000000
0 <= t012 <= 1000000
0 <= t013 <= 1000000
0 <= t014 <= 1000000
0 <= t015 <= 1000000
0 <= d001 <= 2
0 <= d002 <= 2
0 <= d003 <= 2
0 <= d004 <= 2
0 <= d005 <= 2
0 <= d006 <= 2
0 <= d007 <= 2
0 <= d008 <= 2
0 <= d009 <= 2
0 <= d010 <= 2
0 <= d011 <= 2
0 <= d012 <= 2
0 <= d013 <= 2
0 <= d014 <= 2
0 <= d015 <= 2
0 <= d016 <= 2
 d002 = 0


BINARIES
x000002 x011016 x012016 x013016
x001002 
x001003 x001004 x001005 x001006 x001007 x001008 x001009 x001010 x001011 x001012 x001013 x001014 x002001 x002003 x002004 x002005 x002006 x002007 x002008 x002009 x002010 x002011 x002012 x002013 x002014 x003001 x003002 x003004 x003005 x003006 x003007 x003008 x003009 x003010 x003011 x003012 x003013 x003014 x004001 x004002 x004003 x004005 x004006 x004007 x004008 x004009 x004010 x004011 x004012 x004013 
x004014 x005001 x005002 x005003 x005004 x005006 x005007 x005008 x005009 x005010 x005011 x005012 x005013 x005014 x006001 x006002 x006003 x006004 x006005 x006007 x006008 x006009 x006010 x006011 x006012 x006013 x006014 x007001 x007002 x007003 x007004 x007005 x007006 x007008 x007009 x007010 x007011 x007012 x007013 x007014 x008001 x008002 x008003 x008004 x008005 x008006 x008007 x008009 x008010 x008011 
x008012 x008013 x008014 x009001 x009002 x009003 x009004 x009005 x009006 x009007 x009008 x009010 x009011 x009012 x009013 x009014 x010001 x010002 x010003 x010004 x010005 x010006 x010007 x010008 x010009 x010011 x010012 x010013 x010014 x011001 x011002 x011003 x011004 x011005 x011006 x011007 x011008 x011009 x011010 x011012 x011013 x011014 x012001 x012002 x012003 x012004 x012005 x012006 x012007 x012008 
x012009 x012010 x012011 x012013 x012014 x013001 x013002 x013003 x013004 x013005 x013006 x013007 x013008 x013009 x013010 x013011 x013012 x013014 x014001 x014002 x014003 x014004 x014005 x014006 x014007 x014008 x014009 x014010 x014011 x014012 x014013 
End
